97 205 139  86  60 220  65 111  92 122 154 125 234 125 
129 103  71 105 258 154 112  79 145  59 156 34 121 
219 125 175 386 269 134 129 167 151  89 233 145 
208  39 102 227  60  78  90  89 241 176 89 
 51 296 150  42  99 231 166  79 215 132 
279 114  56 210 165 216 197 216 312
 78 328 121 345  78 257 342 123
169 189  76 188 179 265 163
 87  45 123 213 123 56
 23 361 302 231 65 
111 316 123 154
124 121 312
176 45
16 